webassembly/ejemplos_dzn/14/folder14_json_70.dzn
TERM = { '.', 's(2)', 'in_1', 'local_0', 'local_1', 'in_2', 'in_4', 'in_3', 's(1)', 's(0)', 'in_5', 's(3)', 'in_0'};
null = '.';
s = 14;
n = 11;
ndeps = 4;
max_registers_sz = 5;
NR = 2;
registers = [|'local_0', 's(1)', |'local_1', 's(1)'|];
dependencies = [|'i32.store8_0', 'i32.load8_s_2', |'i32.store8_0', 'i32.load_13', |'i32.load8_s_2', 'i32.store8_10', |'i32.store8_10', 'i32.load8_u_11'|];
GET_ENUM = { GET1, GET2, GET3, GET4, GET5, GET6, GET7};
SET_ENUM = { SET1, SET2, SET3, SET4, SET5, SET6, SET7};
TEE_ENUM = { TEE1, TEE2, TEE3, TEE4, TEE5, TEE6, TEE7};
N = 6;
OP = { 'i32.store8_0', 'i32.add_0', 'i32.load8_s_2', 'i32.store8_10', 'i32.load8_u_11', 'i32.load_13' };
in_ops = [2, 2, 1, 2, 1, 1 ];
out_ops = [0, 1, 1, 0, 1, 1 ];
in1 = ['in_0', 'in_2', 's(0)', 's(1)', 'in_5', 's(1)' ];
in2 = ['in_1', 'in_3', '.', 'in_4', '.', '.' ];
in3 = ['.', '.', '.', '.', '.', '.' ];
out1 = ['.', 's(0)', 's(1)', '.', 's(2)', 's(3)' ];
out2 = ['.', '.', '.', '.', '.', '.' ];
out3 = ['.', '.', '.', '.', '.', '.' ];
comm = [false, true, false, false, false, false ];
gas = [1, 1, 1, 1, 1, 1 ];
sz = [1, 1, 1, 1, 1, 1 ];
stor = [true, false, false, true, false, false ];
lb = [ 1, 1, 1, 1, 1, 1 ];
ub = [ 14, 14, 14, 14, 14, 14 ];
startstack = [ 'in_0', 'in_1', 'in_2', 'in_3', 'in_4', 'in_5', null, null, null, null, null ];
endstack = [ 's(3)', 's(2)', null, null, null, null, null, null, null, null, null ];
